db/data/265959145218742384915628255222769631993.z3.out
-------------------
2500.108602801
